InstanceGeneratorProject/output/camera_K5_N10_0.dat
K=5;
N=10;
P=[69 40 34 6 66];
R=[1 15 13 34 38];
A=[2 4 6 3 5];
C=[40 21 43 7 46];
M=[
[ 0 50 12 41 37 50 50 2 36 50 ]
[ 50 0 25 38 50 46 50 24 50 28 ]
[ 12 25 0 50 36 31 50 1 25 50 ]
[ 41 38 50 0 50 40 50 50 50 50 ]
[ 37 50 36 50 0 50 50 50 50 35 ]
[ 50 46 31 40 50 0 1 50 50 7 ]
[ 50 50 50 50 50 1 0 4 19 12 ]
[ 2 24 1 50 50 50 4 0 50 50 ]
[ 36 50 25 50 50 50 19 50 0 50 ]
[ 50 28 50 50 35 7 12 50 50 0 ]
];
