HeuristicsProject/solutions/greedy/camera_K5_N10_0.sol
z =     731.00;
Covered crossing-day pairs: 70 / 70
Assignments (modelId, crossingId, pattern):
  Model 3 -> Crossing 2, Pattern: (0, 1, 1, 0, 1, 1, 1)
  Model 3 -> Crossing 6, Pattern: (1, 0, 0, 1, 1, 0, 1)
  Model 3 -> Crossing 7, Pattern: (1, 0, 1, 1, 0, 0, 1)
  Model 3 -> Crossing 5, Pattern: (0, 1, 1, 0, 0, 0, 0)
  Model 3 -> Crossing 3, Pattern: (0, 1, 1, 0, 1, 1, 1)
  Model 3 -> Crossing 4, Pattern: (0, 1, 1, 0, 1, 1, 1)
  Model 3 -> Crossing 9, Pattern: (0, 0, 0, 0, 0, 1, 1)
  Model 4 -> Crossing 0, Pattern: (1, 0, 0, 1, 1, 0, 1)
  Model 4 -> Crossing 1, Pattern: (1, 0, 0, 1, 1, 0, 1)
